certificates/rado_a12_c272_N29.cnf
c Rad2 upper bound instance: x1 + 12*x2 - x3 = 272, interval [1,29]
p cnf 29 138
1 5 23 0
-1 -5 -23 0
1 17 24 0
-1 -17 -24 0
1 25 29 0
-1 -25 -29 0
2 6 23 0
-2 -6 -23 0
2 18 24 0
-2 -18 -24 0
3 7 23 0
-3 -7 -23 0
3 19 24 0
-3 -19 -24 0
4 8 23 0
-4 -8 -23 0
4 20 24 0
-4 -20 -24 0
5 9 23 0
-5 -9 -23 0
5 21 24 0
-5 -21 -24 0
6 10 23 0
-6 -10 -23 0
6 22 24 0
-6 -22 -24 0
7 11 23 0
-7 -11 -23 0
7 23 24 0
-7 -23 -24 0
8 12 23 0
-8 -12 -23 0
8 24 0
-8 -24 0
1 9 22 0
-1 -9 -22 0
9 13 23 0
-9 -13 -23 0
9 24 25 0
-9 -24 -25 0
2 10 22 0
-2 -10 -22 0
10 14 23 0
-10 -14 -23 0
10 24 26 0
-10 -24 -26 0
3 11 22 0
-3 -11 -22 0
11 15 23 0
-11 -15 -23 0
11 24 27 0
-11 -24 -27 0
4 12 22 0
-4 -12 -22 0
12 16 23 0
-12 -16 -23 0
12 24 28 0
-12 -24 -28 0
5 13 22 0
-5 -13 -22 0
13 17 23 0
-13 -17 -23 0
13 24 29 0
-13 -24 -29 0
6 14 22 0
-6 -14 -22 0
14 18 23 0
-14 -18 -23 0
7 15 22 0
-7 -15 -22 0
15 19 23 0
-15 -19 -23 0
8 16 22 0
-8 -16 -22 0
16 20 23 0
-16 -20 -23 0
9 17 22 0
-9 -17 -22 0
17 21 23 0
-17 -21 -23 0
10 18 22 0
-10 -18 -22 0
18 22 23 0
-18 -22 -23 0
11 19 22 0
-11 -19 -22 0
19 23 0
-19 -23 0
12 20 22 0
-12 -20 -22 0
20 23 24 0
-20 -23 -24 0
1 21 0
-1 -21 0
13 21 22 0
-13 -21 -22 0
21 23 25 0
-21 -23 -25 0
2 21 22 0
-2 -21 -22 0
14 22 0
-14 -22 0
22 23 26 0
-22 -23 -26 0
3 21 23 0
-3 -21 -23 0
15 22 23 0
-15 -22 -23 0
23 27 0
-23 -27 0
4 21 24 0
-4 -21 -24 0
16 22 24 0
-16 -22 -24 0
23 24 28 0
-23 -24 -28 0
5 21 25 0
-5 -21 -25 0
17 22 25 0
-17 -22 -25 0
23 25 29 0
-23 -25 -29 0
6 21 26 0
-6 -21 -26 0
18 22 26 0
-18 -22 -26 0
7 21 27 0
-7 -21 -27 0
19 22 27 0
-19 -22 -27 0
8 21 28 0
-8 -21 -28 0
20 22 28 0
-20 -22 -28 0
9 21 29 0
-9 -21 -29 0
21 22 29 0
-21 -22 -29 0
