certificates/rado_a12_c272_N29.drat
1 22 -29 0
-27 -29 0
24 27 0
-29 0
27 0
-23 0
19 0
25 0
-22 0
18 0
14 0
26 0
15 0
21 0
-1 0
-7 0
-6 0
-5 0
0
